language ESSENCE' 1.0
$ minion Nodes: 9
$ minion TotalTime: 0.001048
$ Savile Row TotalTime: 0.291
letting s_SetExplicit_SetExplicitVarSize_tuple1 be [[false, true, true, true;int(1..4)], 
[false, true, true, true;int(1..4)];int(1..2)]
letting s_SetExplicit_SetExplicitVarSize_tuple2 be [[1, 1, 2, 3;int(1..4)], 
[1, 1, 2, 3;int(1..4)];int(1..2)]
